benchmarks/VRPTW/TSPTW/solution/n150w40.002.txt.solution
1 10 121 149 40 65 23 71 108 147 98 9 33 41 24 18 49 141 126 127 60 144 106 118 58 95 42 59 38 6 28 91 72 39 68 4 136 109 115 102 20 111 103 86 76 37 47 53 89 7 54 32 61 75 92 31 135 74 107 99 128 44 50 55 124 12 131 70 145 11 117 110 140 104 123 21 62 80 14 34 83 13 73 8 3 35 81 93 87 148 150 88 36 63 82 146 56 139 77 79 122 19 2 133 84 119 64 101 67 66 27 97 85 129 22 112 78 105 113 52 94 138 134 120 69 57 29 142 96 26 25 16 132 45 143 90 43 114 15 48 130 116 125 51 46 17 100 137 151 30 5 
941
